% File represents an instance of a Composite Structure problem to be solved by a CP framework
% Created on 2025-03-25 14:05:15.000
T = 60;
n = 36;
m = 60;
edges = [(2, 1),
(8, 7),
(13, 14),
(19, 20),
(26, 25),
(32, 31),
(3, 2),
(8, 9),
(14, 15),
(20, 21),
(27, 26),
(32, 33),
(3, 4),
(9, 10),
(15, 16),
(21, 22),
(27, 28),
(34, 33),
(5, 4),
(10, 11),
(16, 17),
(22, 23),
(28, 29),
(35, 34),
(5, 6),
(11, 12),
(17, 18),
(24, 23),
(29, 30),
(35, 36),
(7, 1),
(13, 7),
(13, 19),
(25, 19),
(25, 31),
(2, 8),
(14, 8),
(20, 14),
(26, 20),
(26, 32),
(3, 9),
(9, 15),
(21, 15),
(27, 21),
(27, 33),
(10, 4),
(16, 10),
(16, 22),
(28, 22),
(28, 34),
(11, 5),
(11, 17),
(17, 23),
(29, 23),
(29, 35),
(6, 12),
(12, 18),
(18, 24),
(30, 24),
(36, 30)];
counts = [|3, 15, 18, 8,
|4, 15, 22, 13,
|4, 15, 22, 15,
|3, 14, 19, 10,
|3, 14, 20, 10,
|2, 14, 20, 10,
|3, 15, 22, 10,
|3, 15, 22, 13,
|3, 15, 21, 13,
|3, 15, 20, 11,
|3, 15, 20, 10,
|2, 13, 20, 10,
|3, 15, 26, 16,
|3, 15, 23, 13,
|3, 15, 21, 12,
|3, 15, 20, 12,
|2, 15, 20, 9,
|2, 13, 20, 9,
|3, 15, 25, 13,
|3, 15, 24, 13,
|3, 15, 21, 13,
|2, 14, 20, 12,
|2, 12, 20, 8,
|2, 13, 20, 8,
|3, 15, 26, 13,
|3, 15, 27, 13,
|3, 16, 27, 13,
|3, 16, 25, 13,
|2, 15, 25, 10,
|2, 15, 20, 8,
|3, 15, 20, 10,
|3, 15, 27, 11,
|2, 15, 23, 9,
|2, 15, 24, 9,
|2, 15, 25, 9,
|2, 15, 25, 8|];
